
Log started (V12.10.0.0) Fri Apr  2 11:23:30 2021


Problem 'asset.lp' read.
Read time = 0.00 sec. (0.10 ticks)
New value for default parallel thread count: 1
New value for time limit in seconds: 400
Version identifier: 12.10.0.0 | 2019-11-26 | 843d4de
CPXPARAM_Threads                                 1
CPXPARAM_TimeLimit                               400
Found incumbent of value -0.872189 after 0.00 sec. (0.05 ticks)
Tried aggregator 3 times.
MIP Presolve eliminated 140 rows and 41 columns.
MIP Presolve modified 776 coefficients.
Aggregator did 356 substitutions.
Reduced MIP has 484 rows, 550 columns, and 2277 nonzeros.
Reduced MIP has 463 binaries, 60 generals, 0 SOSs, and 0 indicators.
Presolve time = 0.00 sec. (4.33 ticks)
Probing fixed 39 vars, tightened 4 bounds.
Probing time = 0.00 sec. (1.56 ticks)
Cover probing fixed 0 vars, tightened 20 bounds.
Tried aggregator 1 time.
Detecting symmetries...
MIP Presolve eliminated 51 rows and 51 columns.
MIP Presolve modified 84 coefficients.
Reduced MIP has 433 rows, 499 columns, and 1933 nonzeros.
Reduced MIP has 416 binaries, 56 generals, 0 SOSs, and 0 indicators.
Presolve time = 0.00 sec. (2.10 ticks)
Probing time = 0.00 sec. (1.22 ticks)
Clique table members: 1361.
MIP emphasis: balance optimality and feasibility.
MIP search method: dynamic search.
Parallel mode: none, using 1 thread.
Root relaxation solution time = 0.00 sec. (3.40 ticks)

        Nodes                                         Cuts/
   Node  Left     Objective  IInf  Best Integer    Best Bound    ItCnt     Gap

*     0+    0                           -0.8722       83.5978              --- 
      0     0       80.2356   144       -0.8722       80.2356      276     --- 
      0     0       80.2285   144       -0.8722     Cuts: 208      492     --- 
      0     0       80.2216   144       -0.8722     Cuts: 208      722     --- 
      0     0       80.2194   144       -0.8722     Cuts: 167      864     --- 
*     0+    0                           77.8371       80.2194             3.06%
      0     0       80.2179   144       77.8371      Cuts: 99      939    3.06%
      0     0       80.2176   144       77.8371     Cuts: 116      977    3.06%
Detecting symmetries...
      0     0       80.2176   144       77.8371      Cuts: 52     1009    3.06%
*     0+    0                           77.8372       80.2176             3.06%
Detecting symmetries...
      0     2       80.2176   148       77.8372       80.2173     1009    3.06%
Elapsed time = 0.12 sec. (119.87 ticks, tree = 0.01 MB, solutions = 2)
*    50+   42                           77.8589       80.2170             3.03%
*    50+   42                           77.8595       80.2170             3.03%
*    56    45      integral     0       77.8637       80.2170     1536    3.02%
*    90+   73                           78.1132       80.2169             2.69%
*   190+  138                           79.5848       80.2159             0.79%
    360   277       80.2124   133       79.5848       80.2149     5935    0.79%
*   470+  370                           79.5870       80.2146             0.79%
*   480+  379                           79.5890       80.2146             0.79%
*   580+  456                           79.5895       80.2132             0.78%
    654   512       80.2071   101       79.5895       80.2131    10726    0.78%
   1034   824       80.2008    87       79.5895       80.2123    16949    0.78%

Performing restart 1

Repeating presolve.
Tried aggregator 6 times.
MIP Presolve eliminated 129 rows and 158 columns.
MIP Presolve added 2 rows and 0 columns.
MIP Presolve modified 356 coefficients.
Aggregator did 16 substitutions.
Reduced MIP has 290 rows, 322 columns, and 1091 nonzeros.
Reduced MIP has 270 binaries, 31 generals, 0 SOSs, and 0 indicators.
Presolve time = 0.00 sec. (2.36 ticks)
Tried aggregator 1 time.
MIP Presolve eliminated 57 rows and 36 columns.
MIP Presolve modified 174 coefficients.
Reduced MIP has 233 rows, 286 columns, and 905 nonzeros.
Reduced MIP has 234 binaries, 31 generals, 0 SOSs, and 0 indicators.
Presolve time = 0.00 sec. (0.90 ticks)
Tried aggregator 1 time.
MIP Presolve eliminated 2 rows and 0 columns.
MIP Presolve modified 36 coefficients.
Reduced MIP has 231 rows, 286 columns, and 901 nonzeros.
Reduced MIP has 234 binaries, 31 generals, 0 SOSs, and 0 indicators.
Presolve time = 0.00 sec. (0.67 ticks)
Represolve time = 0.01 sec. (8.13 ticks)
   1176     0       80.1971   108       79.5895      Cuts: 87    19361    0.76%
   1176     0       80.1966   108       79.5895      Cuts: 75    19444    0.76%
   1176     0       80.1959   108       79.5895      Cuts: 81    19537    0.76%
   1176     0       80.1954   108       79.5895      Cuts: 70    19615    0.76%
   1176     0       80.1952   108       79.5895      Cuts: 61    19703    0.76%
   1176     0       80.1950   108       79.5895      Cuts: 42    19796    0.76%
   1176     0       80.1949   108       79.5895      Cuts: 50    19889    0.76%
   1176     0       80.1947   108       79.5895      Cuts: 39    20002    0.76%
   1176     0       80.1942   108       79.5895      Cuts: 58    20112    0.76%
   1176     0       80.1942   108       79.5895      Cuts: 45    20145    0.76%
   1176     0       80.1941   108       79.5895      Cuts: 20    20186    0.76%
   1176     0       80.1941   108       79.5895      Cuts: 13    20211    0.76%
   1176     0       80.1941   108       79.5895      Cuts: 25    20231    0.76%
   1176     0       80.1941   108       79.5895      Cuts: 10    20239    0.76%
*  1176+    0                           79.5895       80.1941             0.76%
   1176     2       80.1941   120       79.5895       80.1941    20239    0.76%
   1184     9       80.1935    89       79.5895       80.1941    20556    0.76%
   1236    47       79.5960    57       79.5895       80.1941    21964    0.76%
   1363   135       80.1908    89       79.5895       80.1939    25706    0.76%
   1461   181       80.1931    74       79.5895       80.1934    30131    0.76%
*  1486+  189                           79.5897       80.1934             0.76%
   1637   270       79.5929    35       79.5897       80.1932    34761    0.76%

Clique cuts applied:  32
Cover cuts applied:  2
Implied bound cuts applied:  5
Flow cuts applied:  11
Mixed integer rounding cuts applied:  23
Zero-half cuts applied:  10
Lift and project cuts applied:  24
Gomory fractional cuts applied:  6

Root node processing (before b&c):
  Real time             =    0.12 sec. (119.96 ticks)
Sequential b&c:
  Real time             =    2.95 sec. (3386.03 ticks)
                          ------------
Total (root+branch&cut) =    3.08 sec. (3505.99 ticks)

Solution pool: 13 solutions saved.

MIP - Integer optimal, tolerance (0.0001/1e-06):  Objective =  7.9589733689e+01
Current MIP best bound =  7.9597398040e+01 (gap = 0.00766435, 0.01%)
Solution time =    3.08 sec.  Iterations = 40009  Nodes = 1863 (342)
Deterministic time = 3505.99 ticks  (1138.69 ticks/sec)


Incumbent solution
Variable Name           Solution Value
F                           118.000000
f1                            0.930266
f2                           37.480000
y8                            1.000000
y122                          1.000000
y136                          1.000000
y237                          1.000000
y248                          1.000000
y96                           1.000000
y121                          1.000000
y173                          1.000000
y9                            1.000000
y65                           1.000000
y117                          1.000000
y275                          1.000000
y47                           1.000000
y146                          1.000000
y125                          1.000000
y26                           1.000000
y29                           1.000000
y160                          1.000000
y55                           1.000000
y224                          1.000000
s8                            6.272410
s122                          6.537196
s136                          6.300037
s237                          6.361618
s248                          6.508163
s159                          6.050000
s42                           6.100000
s96                           7.026923
s121                          6.560705
s126                          6.150000
s173                          6.431378
s60                           6.160000
s169                          6.170000
s231                          6.190000
s9                            7.077829
s65                           6.330000
s117                          7.558045
s275                          7.351630
s47                           7.561623
s146                          7.283630
s35                           6.900000
s125                          7.787078
s26                           7.810072
s29                           7.226265
s160                          7.815832
s55                           7.830864
s224                          7.776326
x18x122x1                     2.000000
x149x275x1                    1.000000
x149x160x1                    1.000000
x265x146x1                    1.000000
x137x173x1                    1.000000
x34x248x1                     1.000000
x52x248x1                     1.000000
x74x96x1                      1.000000
x207x29x2                     2.000000
x269x9x2                      2.000000
x101x8x2                      1.000000
x101x136x2                    1.000000
x69x237x2                     2.000000
x74x146x2                     1.000000
x230x65x3                     2.000000
x265x275x3                    1.000000
x137x8x3                      1.000000
x12x173x3                     1.000000
x34x136x3                     1.000000
x123x121x3                    2.000000
x52x96x3                      1.000000
x8x47x2                       1.000000
x8x47x3                       1.000000
x122x0x1                      2.000000
x136x55x2                     1.000000
x136x160x3                    1.000000
x237x0x2                      1.000000
x237x26x2                     1.000000
x248x224x1                    2.000000
x96x0x1                       1.000000
x96x0x3                       1.000000
x121x125x3                    2.000000
x173x117x1                    1.000000
x173x117x3                    1.000000
x9x0x2                        2.000000
x65x26x3                      1.000000
x65x55x3                      1.000000
x117x0x1                      1.000000
x117x0x3                      1.000000
x275x0x1                      1.000000
x275x0x3                      1.000000
x47x0x2                       1.000000
x47x0x3                       1.000000
x146x0x1                      1.000000
x146x0x2                      1.000000
x125x0x3                      2.000000
x26x0x2                       1.000000
x26x0x3                       1.000000
x29x0x2                       2.000000
x160x0x1                      1.000000
x160x0x3                      1.000000
x55x0x2                       1.000000
x55x0x3                       1.000000
x224x0x1                      2.000000
s230                          4.925593
z230z65z3                     1.000000
z230z35z3                     1.000000
z230z125z3                    1.000000
s18                           5.318396
z18z122z1                     1.000000
z18z224z1                     1.000000
s207                          5.817760
z207z29z2                     1.000000
s269                          5.664274
z269z9z2                      1.000000
z269z29z2                     1.000000
s149                          5.937062
z149z275z1                    1.000000
z149z160z1                    1.000000
z149z224z1                    1.000000
s265                          5.910000
z265z275z3                    1.000000
z265z146z1                    1.000000
z265z224z1                    1.000000
s137                          4.872580
z137z8z3                      1.000000
z137z173z1                    1.000000
z137z35z3                     1.000000
z137z125z3                    1.000000
z137z224z1                    1.000000
s12                           4.207520
z12z121z3                     1.000000
z12z126z3                     1.000000
z12z173z3                     1.000000
z12z65z3                      1.000000
z12z35z3                      1.000000
z12z125z3                     1.000000
s101                          4.893470
z101z8z2                      1.000000
z101z136z2                    1.000000
z101z29z2                     1.000000
s34                           5.019860
z34z136z3                     1.000000
z34z248z1                     1.000000
z34z35z3                      1.000000
z34z125z3                     1.000000
z34z224z1                     1.000000
s123                          5.043340
z123z121z3                    1.000000
z123z35z3                     1.000000
z123z125z3                    1.000000
s69                           5.088980
z69z237z2                     1.000000
z69z29z2                      1.000000
s52                           5.081740
z52z248z1                     1.000000
z52z96z3                      1.000000
z52z35z3                      1.000000
z52z125z3                     1.000000
z52z224z1                     1.000000
s74                           5.144650
z74z96z1                      1.000000
z74z146z2                     1.000000
z8z47z2                       1.000000
z8z47z3                       1.000000
z136z160z3                    1.000000
z136z55z2                     1.000000
z237z26z2                     1.000000
z248z224z1                    1.000000
z121z125z3                    1.000000
z173z117z1                    1.000000
z173z117z3                    1.000000
z65z26z3                      1.000000
z65z55z3                      1.000000
All other variables in the range 1-949 are 0.
